min: c;

c = 2.99296347832497 * u2_t7_h3 + 2.95565730167925 * u2_t7_h4 + 3.51946813546008 * u2_t2_h5 + 3.51946813546008 * u2_t3_h5 + 3.51946813546008 * u2_t7_h5 + 4.29600534378369 * u2_t2_h6 + 4.29600534378369 * u2_t3_h6 + 4.29600534378369 * u2_t4_h6 + 4.29600534378369 * u2_t7_h6 + 4.29600534378369 * u2_t10_h6 + 3.84589551011439 * u2_t2_h7 + 3.84589551011439 * u2_t3_h7 + 3.84589551011439 * u2_t4_h7 + 3.84589551011439 * u2_t7_h7 + 3.84589551011439 * u2_t10_h7 + 5.26896693652411 * u2_t2_h8 + 5.26896693652411 * u2_t3_h8 + 5.26896693652411 * u2_t4_h8 + 5.26896693652411 * u2_t7_h8 + 5.26896693652411 * u2_t10_h8 + 4.87525599771488 * u2_t2_h9 + 4.87525599771488 * u2_t3_h9 + 4.87525599771488 * u2_t4_h9 + 4.87525599771488 * u2_t7_h9 + 4.87525599771488 * u2_t10_h9 + 5.84618246632249 * u2_t2_h10 + 5.84618246632249 * u2_t3_h10 + 5.84618246632249 * u2_t4_h10 + 5.84618246632249 * u2_t7_h10 + 5.84618246632249 * u2_t10_h10 + 3.92918354736951 * u2_t1_h11 + 3.92918354736951 * u2_t2_h11 + 3.92918354736951 * u2_t3_h11 + 3.92918354736951 * u2_t4_h11 + 3.92918354736951 * u2_t7_h11 + 3.92918354736951 * u2_t10_h11 + 5.87146373131672 * u2_t1_h12 + 5.87146373131672 * u2_t3_h12 + 5.87146373131672 * u2_t4_h12 + 5.87146373131672 * u2_t7_h12 + 4.83724348205868 * u2_t1_h13 + 4.83724348205868 * u2_t3_h13 + 4.83724348205868 * u2_t4_h13 + 4.83724348205868 * u2_t7_h13 + 4.83724348205868 * u2_t9_h13 + 5.38319461327561 * u2_t1_h14 + 5.38319461327561 * u2_t3_h14 + 5.38319461327561 * u2_t4_h14 + 5.38319461327561 * u2_t7_h14 + 5.38319461327561 * u2_t9_h14 + 6.25391786164725 * u2_t1_h15 + 6.25391786164725 * u2_t3_h15 + 6.25391786164725 * u2_t4_h15 + 6.25391786164725 * u2_t7_h15 + 6.25391786164725 * u2_t9_h15 + 6.37186844887613 * u2_t1_h16 + 6.37186844887613 * u2_t3_h16 + 6.37186844887613 * u2_t4_h16 + 6.37186844887613 * u2_t7_h16 + 6.37186844887613 * u2_t9_h16 + 6.01607008960438 * u2_t1_h17 + 6.01607008960438 * u2_t3_h17 + 6.01607008960438 * u2_t4_h17 + 6.01607008960438 * u2_t7_h17 + 6.01607008960438 * u2_t9_h17 + 6.36509480585812 * u2_t1_h18 + 6.36509480585812 * u2_t3_h18 + 6.36509480585812 * u2_t4_h18 + 6.36509480585812 * u2_t6_h18 + 6.36509480585812 * u2_t7_h18 + 5.82405800019901 * u2_t1_h19 + 5.82405800019901 * u2_t3_h19 + 5.82405800019901 * u2_t4_h19 + 5.82405800019901 * u2_t5_h19 + 5.82405800019901 * u2_t6_h19 + 5.82405800019901 * u2_t7_h19 + 5.15432063370679 * u2_t1_h20 + 5.15432063370679 * u2_t3_h20 + 5.15432063370679 * u2_t4_h20 + 5.15432063370679 * u2_t6_h20 + 5.15432063370679 * u2_t7_h20 + 5.36391512842289 * u2_t1_h21 + 5.36391512842289 * u2_t3_h21 + 5.36391512842289 * u2_t6_h21 + 5.36391512842289 * u2_t7_h21 + 5.36391512842289 * u2_t8_h21 + 5.17379006733505 * u2_t1_h22 + 5.17379006733505 * u2_t3_h22 + 5.17379006733505 * u2_t7_h22 + 5.17379006733505 * u2_t8_h22 + 4.99757560878583 * u2_t3_h23 + 4.99757560878583 * u2_t7_h23 + 4.99757560878583 * u2_t8_h23;
0 <= u2_t1_h11 <= 1;
0 <= u2_t1_h12 <= 1;
0 <= u2_t1_h13 <= 1;
0 <= u2_t1_h14 <= 1;
0 <= u2_t1_h15 <= 1;
0 <= u2_t1_h16 <= 1;
0 <= u2_t1_h17 <= 1;
0 <= u2_t1_h18 <= 1;
0 <= u2_t1_h19 <= 1;
0 <= u2_t1_h20 <= 1;
0 <= u2_t1_h21 <= 1;
0 <= u2_t1_h22 <= 1;
u2_t1_h11 + u2_t1_h12 + u2_t1_h13 + u2_t1_h14 + u2_t1_h15 + u2_t1_h16 + u2_t1_h17 + u2_t1_h18 + u2_t1_h19 + u2_t1_h20 + u2_t1_h21 + u2_t1_h22 = 2;
0 <= u2_t2_h5 <= 1;
0 <= u2_t2_h6 <= 1;
0 <= u2_t2_h7 <= 1;
0 <= u2_t2_h8 <= 1;
0 <= u2_t2_h9 <= 1;
0 <= u2_t2_h10 <= 1;
0 <= u2_t2_h11 <= 1;
u2_t2_h5 + u2_t2_h6 + u2_t2_h7 + u2_t2_h8 + u2_t2_h9 + u2_t2_h10 + u2_t2_h11 = 2;
0 <= u2_t3_h5 <= 1;
0 <= u2_t3_h6 <= 1;
0 <= u2_t3_h7 <= 1;
0 <= u2_t3_h8 <= 1;
0 <= u2_t3_h9 <= 1;
0 <= u2_t3_h10 <= 1;
0 <= u2_t3_h11 <= 1;
0 <= u2_t3_h12 <= 1;
0 <= u2_t3_h13 <= 1;
0 <= u2_t3_h14 <= 1;
0 <= u2_t3_h15 <= 1;
0 <= u2_t3_h16 <= 1;
0 <= u2_t3_h17 <= 1;
0 <= u2_t3_h18 <= 1;
0 <= u2_t3_h19 <= 1;
0 <= u2_t3_h20 <= 1;
0 <= u2_t3_h21 <= 1;
0 <= u2_t3_h22 <= 1;
0 <= u2_t3_h23 <= 1;
u2_t3_h5 + u2_t3_h6 + u2_t3_h7 + u2_t3_h8 + u2_t3_h9 + u2_t3_h10 + u2_t3_h11 + u2_t3_h12 + u2_t3_h13 + u2_t3_h14 + u2_t3_h15 + u2_t3_h16 + u2_t3_h17 + u2_t3_h18 + u2_t3_h19 + u2_t3_h20 + u2_t3_h21 + u2_t3_h22 + u2_t3_h23 = 1;
0 <= u2_t4_h6 <= 1;
0 <= u2_t4_h7 <= 1;
0 <= u2_t4_h8 <= 1;
0 <= u2_t4_h9 <= 1;
0 <= u2_t4_h10 <= 1;
0 <= u2_t4_h11 <= 1;
0 <= u2_t4_h12 <= 1;
0 <= u2_t4_h13 <= 1;
0 <= u2_t4_h14 <= 1;
0 <= u2_t4_h15 <= 1;
0 <= u2_t4_h16 <= 1;
0 <= u2_t4_h17 <= 1;
0 <= u2_t4_h18 <= 1;
0 <= u2_t4_h19 <= 1;
0 <= u2_t4_h20 <= 1;
u2_t4_h6 + u2_t4_h7 + u2_t4_h8 + u2_t4_h9 + u2_t4_h10 + u2_t4_h11 + u2_t4_h12 + u2_t4_h13 + u2_t4_h14 + u2_t4_h15 + u2_t4_h16 + u2_t4_h17 + u2_t4_h18 + u2_t4_h19 + u2_t4_h20 = 3;
0 <= u2_t5_h19 <= 1;
u2_t5_h19 = 1;
0 <= u2_t6_h18 <= 1;
0 <= u2_t6_h19 <= 1;
0 <= u2_t6_h20 <= 1;
0 <= u2_t6_h21 <= 1;
u2_t6_h18 + u2_t6_h19 + u2_t6_h20 + u2_t6_h21 = 2;
0 <= u2_t7_h3 <= 1;
0 <= u2_t7_h4 <= 1;
0 <= u2_t7_h5 <= 1;
0 <= u2_t7_h6 <= 1;
0 <= u2_t7_h7 <= 1;
0 <= u2_t7_h8 <= 1;
0 <= u2_t7_h9 <= 1;
0 <= u2_t7_h10 <= 1;
0 <= u2_t7_h11 <= 1;
0 <= u2_t7_h12 <= 1;
0 <= u2_t7_h13 <= 1;
0 <= u2_t7_h14 <= 1;
0 <= u2_t7_h15 <= 1;
0 <= u2_t7_h16 <= 1;
0 <= u2_t7_h17 <= 1;
0 <= u2_t7_h18 <= 1;
0 <= u2_t7_h19 <= 1;
0 <= u2_t7_h20 <= 1;
0 <= u2_t7_h21 <= 1;
0 <= u2_t7_h22 <= 1;
0 <= u2_t7_h23 <= 1;
u2_t7_h3 + u2_t7_h4 + u2_t7_h5 + u2_t7_h6 + u2_t7_h7 + u2_t7_h8 + u2_t7_h9 + u2_t7_h10 + u2_t7_h11 + u2_t7_h12 + u2_t7_h13 + u2_t7_h14 + u2_t7_h15 + u2_t7_h16 + u2_t7_h17 + u2_t7_h18 + u2_t7_h19 + u2_t7_h20 + u2_t7_h21 + u2_t7_h22 + u2_t7_h23 = 3;
0 <= u2_t8_h21 <= 1;
0 <= u2_t8_h22 <= 1;
0 <= u2_t8_h23 <= 1;
u2_t8_h21 + u2_t8_h22 + u2_t8_h23 = 2;
0 <= u2_t9_h13 <= 1;
0 <= u2_t9_h14 <= 1;
0 <= u2_t9_h15 <= 1;
0 <= u2_t9_h16 <= 1;
0 <= u2_t9_h17 <= 1;
u2_t9_h13 + u2_t9_h14 + u2_t9_h15 + u2_t9_h16 + u2_t9_h17 = 1;
0 <= u2_t10_h6 <= 1;
0 <= u2_t10_h7 <= 1;
0 <= u2_t10_h8 <= 1;
0 <= u2_t10_h9 <= 1;
0 <= u2_t10_h10 <= 1;
0 <= u2_t10_h11 <= 1;
u2_t10_h6 + u2_t10_h7 + u2_t10_h8 + u2_t10_h9 + u2_t10_h10 + u2_t10_h11 = 2;
